
  22    4
  10   10   10   10

   0   0   0   0   0   5 2 3 4 5 6 
   9  10  10  10  10   4 12 11 9 7 
   2  10  10  10  10   4 12 11 9 7 
   3  10  10  10  10   3 14 11 8 
  10  10  10  10  10   3 12 11 7 
   5  10  10  10  10   4 17 14 13 12 
   7  10  10  10  10   2 14 10 
   1  10  10  10  10   2 12 10 
   1  10  10  10  10   4 17 16 14 13 
   5  10  10  10  10   3 17 16 13 
   5  10  10  10  10   3 17 16 15 
   3  10  10  10  10   2 16 15 
   1  10  10  10  10   2 21 15 
  10  10  10  10  10   2 21 15 
   3  10  10  10  10   3 20 19 18 
   1  10  10  10  10   3 21 19 18 
   1  10  10  10  10   3 20 19 18 
   6  10  10  10  10   1 22
   7  10  10  10  10   1 22
   9  10  10  10  10   1 22
  10  10  10  10  10   1 22
   0   0   0   0   0   0 
